0 444
1 436
6 404
7 386
8 374
10 360
13 356
19 336
24 330
26 326
27 318
35 316
38 312
45 292
57 288
62 280
78 274
101 250
124 246
140 238
163 234
196 214
220 210
331 208
374 192
574 186
695 182
714 180
720 176
857 172
5148 168
5385 164
9409 162
17163 158
17288 156
